CPXPARAM_Read_DataCheck                          1
Found incumbent of value 0.000000 after 0.00 sec. (0.13 ticks)
Tried aggregator 1 time.
MIP Presolve modified 1 coefficients.
Reduced MIP has 1017 rows, 5005 columns, and 25017 nonzeros.
Reduced MIP has 5005 binaries, 0 generals, 0 SOSs, and 0 indicators.
Presolve time = 0.02 sec. (8.96 ticks)
Probing time = 0.02 sec. (6.02 ticks)
Tried aggregator 1 time.
Reduced MIP has 1017 rows, 5005 columns, and 25017 nonzeros.
Reduced MIP has 5005 binaries, 0 generals, 0 SOSs, and 0 indicators.
Presolve time = 0.00 sec. (10.89 ticks)
Probing time = 0.02 sec. (6.27 ticks)
Clique table members: 17564.
MIP emphasis: balance optimality and feasibility.
MIP search method: dynamic search.
Parallel mode: deterministic, using up to 4 threads.
Root relaxation solution time = 0.03 sec. (28.17 ticks)

        Nodes                                         Cuts/
   Node  Left     Objective  IInf  Best Integer    Best Bound    ItCnt     Gap

*     0+    0                            0.0000    30794.0000              --- 
*     0+    0                         4719.0000    30794.0000           552.55%
      0     0    18206.9000     5     4719.0000    18206.9000     1261  285.82%
*     0+    0                         8323.0000    18206.9000           118.75%
*     0+    0                        11501.0000    18206.9000            58.31%
      0     0        cutoff          11501.0000    11501.0000     1265    0.00%
Elapsed time = 0.61 sec. (331.09 ticks, tree = 0.01 MB, solutions = 4)

Clique cuts applied:  354

Root node processing (before b&c):
  Real time             =    0.61 sec. (331.48 ticks)
Parallel b&c, 4 threads:
  Real time             =    0.00 sec. (0.00 ticks)
  Sync time (average)   =    0.00 sec.
  Wait time (average)   =    0.00 sec.
                          ------------
Total (root+branch&cut) =    0.61 sec. (331.48 ticks)
